#definition

# set
set V := C1 C2 C3 C4 C5 C6 C7 C8 C9 C10 ; 	# customer set
set F := F11 F12 F13 F14
F11_1 F11_2 F11_3 F11_4 
F12_1 F12_2 F12_3 F12_4 
F13_1 F13_2 F13_3 F13_4 
F14_1 F14_2 F14_3 F14_4 ;#recharging & battery swapping station
set D0 :=N0;
set Dσ :=Nσ;


# param
param CV := 50;    		# ECV fixed cost(Topic Given)
param C := 1000;   		# ECV max load
param Q := 60.63; 		# ECV/BSV battery level
param h := 1;     		# ECV consumption

param CB := 60;    		# BSV fixed cost(Topic Given)
param Qplun := 5;       # BSV max load(battery)
param hplun := 1;     	# BSV consumption
param W :=121.26;		# BSV battery level

param Cde := 1;    		# ECV cost per unit distance
param Cdb := 1;    		# BSV cost per unit distance
param lamda := 3.00;	# battery swap time
param Cb :=8 ;  	    # battery swap cost(BSS/BSV)
param n :=10;	   		# number of customers
param g :=1.47 ;     	# the recharging rate of ECV 



# customer demend
param m :=
N0 0
C1 14
C2 13
C3 12
C4 16
C5 23
C6 27
C7 7
C8 25
C9 27
C10 17
F11 0
F12 0
F13 0
F14 0
F11_1 0
F11_2 0
F11_3 0
F11_4 0
F12_1 0
F12_2 0
F12_3 0
F12_4 0
F13_1 0
F13_2 0
F13_3 0
F13_4 0
F14_1 0
F14_2 0
F14_3 0
F14_4 0
Nσ 0;

param e :=
N0 0
C1 817
C2 547
C3 377
C4 114
C5 660
C6 152
C7 436
C8 31
C9 436
C10 798
F11 0
F12 0
F13 0
F14 0
F11_1 0
F11_2 0
F11_3 0
F11_4 0
F12_1 0
F12_2 0
F12_3 0
F12_4 0
F13_1 0
F13_2 0
F13_3 0
F13_4 0
F14_1 0
F14_2 0
F14_3 0
F14_4 0
Nσ 0;

param l :=
N0 1000
C1 952
C2 642
C3 434
C4 255
C5 777
C6 275
C7 511
C8 208
C9 503
C10 965
F11 1000
F12 1000
F13 1000
F14 1000
F11_1 1000
F11_2 1000
F11_3 1000
F11_4 1000
F12_1 1000
F12_2 1000
F12_3 1000
F12_4 1000
F13_1 1000
F13_2 1000
F13_3 1000
F13_4 1000
F14_1 1000
F14_2 1000
F14_3 1000
F14_4 1000
Nσ 1000;

param s :=
N0 0
C1 10
C2 10
C3 10
C4 10
C5 10
C6 10
C7 10
C8 10
C9 10
C10 10
F11 0
F12 0
F13 0
F14 0
F11_1 0
F11_2 0
F11_3 0
F11_4 0
F12_1 0
F12_2 0
F12_3 0
F12_4 0
F13_1 0
F13_2 0
F13_3 0
F13_4 0
F14_1 0
F14_2 0
F14_3 0
F14_4 0
Nσ 0;

param d : N0 C1 C2 C3 C4 C5 C6 C7 C8 C9 C10 F11 F12 F13 F14 F11_1 F11_2 F11_3 F11_4 F12_1 F12_2 F12_3 F12_4 F13_1 F13_2 F13_3 F13_4 F14_1 F14_2 F14_3 F14_4 Nσ :=
N0 0.0000 19.6977 16.9706 15.8114 6.3246 34.0000 17.4642 24.3311 22.4722 12.0416 24.0416 0.0000 27.8927 19.1050 19.0263 0.0000 0.0000 0.0000 0.0000 27.8927 27.8927 27.8927 27.8927 19.1050 19.1050 19.1050 19.1050 19.0263 19.0263 19.0263 19.0263 0.0000
C1 19.6977 0.0000 7.2111 33.1361 13.4164 31.6228 23.7697 43.6807 27.6586 31.3847 43.0116 19.6977 31.4006 38.2753 33.0151 19.6977 19.6977 19.6977 19.6977 31.4006 31.4006 31.4006 31.4006 38.2753 38.2753 38.2753 38.2753 33.0151 33.0151 33.0151 33.0151 19.6977
C2 16.9706 7.2111 0.0000 27.8927 11.6619 25.0599 16.7631 39.3954 31.0000 29.0000 41.0122 16.9706 24.2074 36.0694 33.6155 16.9706 16.9706 16.9706 16.9706 24.2074 24.2074 24.2074 24.2074 36.0694 36.0694 36.0694 36.0694 33.6155 33.6155 33.6155 33.6155 16.9706
C3 15.8114 33.1361 27.8927 0.0000 21.2132 32.6497 16.2788 12.7279 36.1248 14.3178 22.0907 15.8114 23.4094 18.0278 27.7849 15.8114 15.8114 15.8114 15.8114 23.4094 23.4094 23.4094 23.4094 18.0278 18.0278 18.0278 18.0278 27.7849 27.7849 27.7849 27.7849 15.8114
C4 6.3246 13.4164 11.6619 21.2132 0.0000 32.5576 18.0278 30.5941 21.8403 18.0278 29.8329 6.3246 28.1780 25.0000 22.1359 6.3246 6.3246 6.3246 6.3246 28.1780 28.1780 28.1780 28.1780 25.0000 25.0000 25.0000 25.0000 22.1359 22.1359 22.1359 22.1359 6.3246
C5 34.0000 31.6228 25.0599 32.6497 32.5576 0.0000 17.4642 44.9444 54.3415 42.9535 53.7587 34.0000 9.8995 49.0408 53.0094 34.0000 34.0000 34.0000 34.0000 9.8995 9.8995 9.8995 9.8995 49.0408 49.0408 49.0408 49.0408 53.0094 53.0094 53.0094 53.0094 34.0000
C6 17.4642 23.7697 16.7631 16.2788 18.0278 17.4642 0.0000 29.0000 39.3954 25.4951 36.4005 17.4642 10.4403 31.6228 36.1248 17.4642 17.4642 17.4642 17.4642 10.4403 10.4403 10.4403 10.4403 31.6228 31.6228 31.6228 31.6228 36.1248 36.1248 36.1248 36.1248 17.4642
C7 24.3311 43.6807 39.3954 12.7279 30.5941 44.9444 29.0000 0.0000 39.0000 15.5242 14.7648 24.3311 35.3553 13.4536 27.4591 24.3311 24.3311 24.3311 24.3311 35.3553 35.3553 35.3553 35.3553 13.4536 13.4536 13.4536 13.4536 27.4591 27.4591 27.4591 27.4591 24.3311
C8 22.4722 27.6586 31.0000 36.1248 21.8403 54.3415 39.3954 39.0000 0.0000 23.7065 29.0689 22.4722 49.7695 26.6833 13.0000 22.4722 22.4722 22.4722 22.4722 49.7695 49.7695 49.7695 49.7695 26.6833 26.6833 26.6833 26.6833 13.0000 13.0000 13.0000 13.0000 22.4722
C9 12.0416 31.3847 29.0000 14.3178 18.0278 42.9535 25.4951 15.5242 23.7065 0.0000 12.0416 12.0416 35.0571 7.0711 13.6015 12.0416 12.0416 12.0416 12.0416 35.0571 35.0571 35.0571 35.0571 7.0711 7.0711 7.0711 7.0711 13.6015 13.6015 13.6015 13.6015 12.0416
C10 24.0416 43.0116 41.0122 22.0907 29.8329 53.7587 36.4005 14.7648 29.0689 12.0416 0.0000 24.0416 45.1221 5.0000 16.1245 24.0416 24.0416 24.0416 24.0416 45.1221 45.1221 45.1221 45.1221 5.0000 5.0000 5.0000 5.0000 16.1245 16.1245 16.1245 16.1245 24.0416
F11 0.0000 19.6977 16.9706 15.8114 6.3246 34.0000 17.4642 24.3311 22.4722 12.0416 24.0416 0.0000 27.8927 19.1050 19.0263 0.0000 0.0000 0.0000 0.0000 27.8927 27.8927 27.8927 27.8927 19.1050 19.1050 19.1050 19.1050 19.0263 19.0263 19.0263 19.0263 0.0000
F12 27.8927 31.4006 24.2074 23.4094 28.1780 9.8995 10.4403 35.3553 49.7695 35.0571 45.1221 27.8927 0.0000 40.6079 46.3897 27.8927 27.8927 27.8927 27.8927 0.0000 0.0000 0.0000 0.0000 40.6079 40.6079 40.6079 40.6079 46.3897 46.3897 46.3897 46.3897 27.8927
F13 19.1050 38.2753 36.0694 18.0278 25.0000 49.0408 31.6228 13.4536 26.6833 7.0711 5.0000 19.1050 40.6079 0.0000 14.3178 19.1050 19.1050 19.1050 19.1050 40.6079 40.6079 40.6079 40.6079 0.0000 0.0000 0.0000 0.0000 14.3178 14.3178 14.3178 14.3178 19.1050
F14 19.0263 33.0151 33.6155 27.7849 22.1359 53.0094 36.1248 27.4591 13.0000 13.6015 16.1245 19.0263 46.3897 14.3178 0.0000 19.0263 19.0263 19.0263 19.0263 46.3897 46.3897 46.3897 46.3897 14.3178 14.3178 14.3178 14.3178 0.0000 0.0000 0.0000 0.0000 19.0263
F11_1 0.0000 19.6977 16.9706 15.8114 6.3246 34.0000 17.4642 24.3311 22.4722 12.0416 24.0416 0.0000 27.8927 19.1050 19.0263 0.0000 0.0000 0.0000 0.0000 27.8927 27.8927 27.8927 27.8927 19.1050 19.1050 19.1050 19.1050 19.0263 19.0263 19.0263 19.0263 0.0000
F11_2 0.0000 19.6977 16.9706 15.8114 6.3246 34.0000 17.4642 24.3311 22.4722 12.0416 24.0416 0.0000 27.8927 19.1050 19.0263 0.0000 0.0000 0.0000 0.0000 27.8927 27.8927 27.8927 27.8927 19.1050 19.1050 19.1050 19.1050 19.0263 19.0263 19.0263 19.0263 0.0000
F11_3 0.0000 19.6977 16.9706 15.8114 6.3246 34.0000 17.4642 24.3311 22.4722 12.0416 24.0416 0.0000 27.8927 19.1050 19.0263 0.0000 0.0000 0.0000 0.0000 27.8927 27.8927 27.8927 27.8927 19.1050 19.1050 19.1050 19.1050 19.0263 19.0263 19.0263 19.0263 0.0000
F11_4 0.0000 19.6977 16.9706 15.8114 6.3246 34.0000 17.4642 24.3311 22.4722 12.0416 24.0416 0.0000 27.8927 19.1050 19.0263 0.0000 0.0000 0.0000 0.0000 27.8927 27.8927 27.8927 27.8927 19.1050 19.1050 19.1050 19.1050 19.0263 19.0263 19.0263 19.0263 0.0000
F12_1 27.8927 31.4006 24.2074 23.4094 28.1780 9.8995 10.4403 35.3553 49.7695 35.0571 45.1221 27.8927 0.0000 40.6079 46.3897 27.8927 27.8927 27.8927 27.8927 0.0000 0.0000 0.0000 0.0000 40.6079 40.6079 40.6079 40.6079 46.3897 46.3897 46.3897 46.3897 27.8927
F12_2 27.8927 31.4006 24.2074 23.4094 28.1780 9.8995 10.4403 35.3553 49.7695 35.0571 45.1221 27.8927 0.0000 40.6079 46.3897 27.8927 27.8927 27.8927 27.8927 0.0000 0.0000 0.0000 0.0000 40.6079 40.6079 40.6079 40.6079 46.3897 46.3897 46.3897 46.3897 27.8927
F12_3 27.8927 31.4006 24.2074 23.4094 28.1780 9.8995 10.4403 35.3553 49.7695 35.0571 45.1221 27.8927 0.0000 40.6079 46.3897 27.8927 27.8927 27.8927 27.8927 0.0000 0.0000 0.0000 0.0000 40.6079 40.6079 40.6079 40.6079 46.3897 46.3897 46.3897 46.3897 27.8927
F12_4 27.8927 31.4006 24.2074 23.4094 28.1780 9.8995 10.4403 35.3553 49.7695 35.0571 45.1221 27.8927 0.0000 40.6079 46.3897 27.8927 27.8927 27.8927 27.8927 0.0000 0.0000 0.0000 0.0000 40.6079 40.6079 40.6079 40.6079 46.3897 46.3897 46.3897 46.3897 27.8927
F13_1 19.1050 38.2753 36.0694 18.0278 25.0000 49.0408 31.6228 13.4536 26.6833 7.0711 5.0000 19.1050 40.6079 0.0000 14.3178 19.1050 19.1050 19.1050 19.1050 40.6079 40.6079 40.6079 40.6079 0.0000 0.0000 0.0000 0.0000 14.3178 14.3178 14.3178 14.3178 19.1050
F13_2 19.1050 38.2753 36.0694 18.0278 25.0000 49.0408 31.6228 13.4536 26.6833 7.0711 5.0000 19.1050 40.6079 0.0000 14.3178 19.1050 19.1050 19.1050 19.1050 40.6079 40.6079 40.6079 40.6079 0.0000 0.0000 0.0000 0.0000 14.3178 14.3178 14.3178 14.3178 19.1050
F13_3 19.1050 38.2753 36.0694 18.0278 25.0000 49.0408 31.6228 13.4536 26.6833 7.0711 5.0000 19.1050 40.6079 0.0000 14.3178 19.1050 19.1050 19.1050 19.1050 40.6079 40.6079 40.6079 40.6079 0.0000 0.0000 0.0000 0.0000 14.3178 14.3178 14.3178 14.3178 19.1050
F13_4 19.1050 38.2753 36.0694 18.0278 25.0000 49.0408 31.6228 13.4536 26.6833 7.0711 5.0000 19.1050 40.6079 0.0000 14.3178 19.1050 19.1050 19.1050 19.1050 40.6079 40.6079 40.6079 40.6079 0.0000 0.0000 0.0000 0.0000 14.3178 14.3178 14.3178 14.3178 19.1050
F14_1 19.0263 33.0151 33.6155 27.7849 22.1359 53.0094 36.1248 27.4591 13.0000 13.6015 16.1245 19.0263 46.3897 14.3178 0.0000 19.0263 19.0263 19.0263 19.0263 46.3897 46.3897 46.3897 46.3897 14.3178 14.3178 14.3178 14.3178 0.0000 0.0000 0.0000 0.0000 19.0263
F14_2 19.0263 33.0151 33.6155 27.7849 22.1359 53.0094 36.1248 27.4591 13.0000 13.6015 16.1245 19.0263 46.3897 14.3178 0.0000 19.0263 19.0263 19.0263 19.0263 46.3897 46.3897 46.3897 46.3897 14.3178 14.3178 14.3178 14.3178 0.0000 0.0000 0.0000 0.0000 19.0263
F14_3 19.0263 33.0151 33.6155 27.7849 22.1359 53.0094 36.1248 27.4591 13.0000 13.6015 16.1245 19.0263 46.3897 14.3178 0.0000 19.0263 19.0263 19.0263 19.0263 46.3897 46.3897 46.3897 46.3897 14.3178 14.3178 14.3178 14.3178 0.0000 0.0000 0.0000 0.0000 19.0263
F14_4 19.0263 33.0151 33.6155 27.7849 22.1359 53.0094 36.1248 27.4591 13.0000 13.6015 16.1245 19.0263 46.3897 14.3178 0.0000 19.0263 19.0263 19.0263 19.0263 46.3897 46.3897 46.3897 46.3897 14.3178 14.3178 14.3178 14.3178 0.0000 0.0000 0.0000 0.0000 19.0263
Nσ 0.0000 19.6977 16.9706 15.8114 6.3246 34.0000 17.4642 24.3311 22.4722 12.0416 24.0416 0.0000 27.8927 19.1050 19.0263 0.0000 0.0000 0.0000 0.0000 27.8927 27.8927 27.8927 27.8927 19.1050 19.1050 19.1050 19.1050 19.0263 19.0263 19.0263 19.0263 0.0000
;

param t : N0 C1 C2 C3 C4 C5 C6 C7 C8 C9 C10 F11 F12 F13 F14 F11_1 F11_2 F11_3 F11_4 F12_1 F12_2 F12_3 F12_4 F13_1 F13_2 F13_3 F13_4 F14_1 F14_2 F14_3 F14_4 Nσ :=
N0 0.0000 19.6977 16.9706 15.8114 6.3246 34.0000 17.4642 24.3311 22.4722 12.0416 24.0416 0.0000 27.8927 19.1050 19.0263 0.0000 0.0000 0.0000 0.0000 27.8927 27.8927 27.8927 27.8927 19.1050 19.1050 19.1050 19.1050 19.0263 19.0263 19.0263 19.0263 0.0000
C1 19.6977 0.0000 7.2111 33.1361 13.4164 31.6228 23.7697 43.6807 27.6586 31.3847 43.0116 19.6977 31.4006 38.2753 33.0151 19.6977 19.6977 19.6977 19.6977 31.4006 31.4006 31.4006 31.4006 38.2753 38.2753 38.2753 38.2753 33.0151 33.0151 33.0151 33.0151 19.6977
C2 16.9706 7.2111 0.0000 27.8927 11.6619 25.0599 16.7631 39.3954 31.0000 29.0000 41.0122 16.9706 24.2074 36.0694 33.6155 16.9706 16.9706 16.9706 16.9706 24.2074 24.2074 24.2074 24.2074 36.0694 36.0694 36.0694 36.0694 33.6155 33.6155 33.6155 33.6155 16.9706
C3 15.8114 33.1361 27.8927 0.0000 21.2132 32.6497 16.2788 12.7279 36.1248 14.3178 22.0907 15.8114 23.4094 18.0278 27.7849 15.8114 15.8114 15.8114 15.8114 23.4094 23.4094 23.4094 23.4094 18.0278 18.0278 18.0278 18.0278 27.7849 27.7849 27.7849 27.7849 15.8114
C4 6.3246 13.4164 11.6619 21.2132 0.0000 32.5576 18.0278 30.5941 21.8403 18.0278 29.8329 6.3246 28.1780 25.0000 22.1359 6.3246 6.3246 6.3246 6.3246 28.1780 28.1780 28.1780 28.1780 25.0000 25.0000 25.0000 25.0000 22.1359 22.1359 22.1359 22.1359 6.3246
C5 34.0000 31.6228 25.0599 32.6497 32.5576 0.0000 17.4642 44.9444 54.3415 42.9535 53.7587 34.0000 9.8995 49.0408 53.0094 34.0000 34.0000 34.0000 34.0000 9.8995 9.8995 9.8995 9.8995 49.0408 49.0408 49.0408 49.0408 53.0094 53.0094 53.0094 53.0094 34.0000
C6 17.4642 23.7697 16.7631 16.2788 18.0278 17.4642 0.0000 29.0000 39.3954 25.4951 36.4005 17.4642 10.4403 31.6228 36.1248 17.4642 17.4642 17.4642 17.4642 10.4403 10.4403 10.4403 10.4403 31.6228 31.6228 31.6228 31.6228 36.1248 36.1248 36.1248 36.1248 17.4642
C7 24.3311 43.6807 39.3954 12.7279 30.5941 44.9444 29.0000 0.0000 39.0000 15.5242 14.7648 24.3311 35.3553 13.4536 27.4591 24.3311 24.3311 24.3311 24.3311 35.3553 35.3553 35.3553 35.3553 13.4536 13.4536 13.4536 13.4536 27.4591 27.4591 27.4591 27.4591 24.3311
C8 22.4722 27.6586 31.0000 36.1248 21.8403 54.3415 39.3954 39.0000 0.0000 23.7065 29.0689 22.4722 49.7695 26.6833 13.0000 22.4722 22.4722 22.4722 22.4722 49.7695 49.7695 49.7695 49.7695 26.6833 26.6833 26.6833 26.6833 13.0000 13.0000 13.0000 13.0000 22.4722
C9 12.0416 31.3847 29.0000 14.3178 18.0278 42.9535 25.4951 15.5242 23.7065 0.0000 12.0416 12.0416 35.0571 7.0711 13.6015 12.0416 12.0416 12.0416 12.0416 35.0571 35.0571 35.0571 35.0571 7.0711 7.0711 7.0711 7.0711 13.6015 13.6015 13.6015 13.6015 12.0416
C10 24.0416 43.0116 41.0122 22.0907 29.8329 53.7587 36.4005 14.7648 29.0689 12.0416 0.0000 24.0416 45.1221 5.0000 16.1245 24.0416 24.0416 24.0416 24.0416 45.1221 45.1221 45.1221 45.1221 5.0000 5.0000 5.0000 5.0000 16.1245 16.1245 16.1245 16.1245 24.0416
F11 0.0000 19.6977 16.9706 15.8114 6.3246 34.0000 17.4642 24.3311 22.4722 12.0416 24.0416 0.0000 27.8927 19.1050 19.0263 0.0000 0.0000 0.0000 0.0000 27.8927 27.8927 27.8927 27.8927 19.1050 19.1050 19.1050 19.1050 19.0263 19.0263 19.0263 19.0263 0.0000
F12 27.8927 31.4006 24.2074 23.4094 28.1780 9.8995 10.4403 35.3553 49.7695 35.0571 45.1221 27.8927 0.0000 40.6079 46.3897 27.8927 27.8927 27.8927 27.8927 0.0000 0.0000 0.0000 0.0000 40.6079 40.6079 40.6079 40.6079 46.3897 46.3897 46.3897 46.3897 27.8927
F13 19.1050 38.2753 36.0694 18.0278 25.0000 49.0408 31.6228 13.4536 26.6833 7.0711 5.0000 19.1050 40.6079 0.0000 14.3178 19.1050 19.1050 19.1050 19.1050 40.6079 40.6079 40.6079 40.6079 0.0000 0.0000 0.0000 0.0000 14.3178 14.3178 14.3178 14.3178 19.1050
F14 19.0263 33.0151 33.6155 27.7849 22.1359 53.0094 36.1248 27.4591 13.0000 13.6015 16.1245 19.0263 46.3897 14.3178 0.0000 19.0263 19.0263 19.0263 19.0263 46.3897 46.3897 46.3897 46.3897 14.3178 14.3178 14.3178 14.3178 0.0000 0.0000 0.0000 0.0000 19.0263
F11_1 0.0000 19.6977 16.9706 15.8114 6.3246 34.0000 17.4642 24.3311 22.4722 12.0416 24.0416 0.0000 27.8927 19.1050 19.0263 0.0000 0.0000 0.0000 0.0000 27.8927 27.8927 27.8927 27.8927 19.1050 19.1050 19.1050 19.1050 19.0263 19.0263 19.0263 19.0263 0.0000
F11_2 0.0000 19.6977 16.9706 15.8114 6.3246 34.0000 17.4642 24.3311 22.4722 12.0416 24.0416 0.0000 27.8927 19.1050 19.0263 0.0000 0.0000 0.0000 0.0000 27.8927 27.8927 27.8927 27.8927 19.1050 19.1050 19.1050 19.1050 19.0263 19.0263 19.0263 19.0263 0.0000
F11_3 0.0000 19.6977 16.9706 15.8114 6.3246 34.0000 17.4642 24.3311 22.4722 12.0416 24.0416 0.0000 27.8927 19.1050 19.0263 0.0000 0.0000 0.0000 0.0000 27.8927 27.8927 27.8927 27.8927 19.1050 19.1050 19.1050 19.1050 19.0263 19.0263 19.0263 19.0263 0.0000
F11_4 0.0000 19.6977 16.9706 15.8114 6.3246 34.0000 17.4642 24.3311 22.4722 12.0416 24.0416 0.0000 27.8927 19.1050 19.0263 0.0000 0.0000 0.0000 0.0000 27.8927 27.8927 27.8927 27.8927 19.1050 19.1050 19.1050 19.1050 19.0263 19.0263 19.0263 19.0263 0.0000
F12_1 27.8927 31.4006 24.2074 23.4094 28.1780 9.8995 10.4403 35.3553 49.7695 35.0571 45.1221 27.8927 0.0000 40.6079 46.3897 27.8927 27.8927 27.8927 27.8927 0.0000 0.0000 0.0000 0.0000 40.6079 40.6079 40.6079 40.6079 46.3897 46.3897 46.3897 46.3897 27.8927
F12_2 27.8927 31.4006 24.2074 23.4094 28.1780 9.8995 10.4403 35.3553 49.7695 35.0571 45.1221 27.8927 0.0000 40.6079 46.3897 27.8927 27.8927 27.8927 27.8927 0.0000 0.0000 0.0000 0.0000 40.6079 40.6079 40.6079 40.6079 46.3897 46.3897 46.3897 46.3897 27.8927
F12_3 27.8927 31.4006 24.2074 23.4094 28.1780 9.8995 10.4403 35.3553 49.7695 35.0571 45.1221 27.8927 0.0000 40.6079 46.3897 27.8927 27.8927 27.8927 27.8927 0.0000 0.0000 0.0000 0.0000 40.6079 40.6079 40.6079 40.6079 46.3897 46.3897 46.3897 46.3897 27.8927
F12_4 27.8927 31.4006 24.2074 23.4094 28.1780 9.8995 10.4403 35.3553 49.7695 35.0571 45.1221 27.8927 0.0000 40.6079 46.3897 27.8927 27.8927 27.8927 27.8927 0.0000 0.0000 0.0000 0.0000 40.6079 40.6079 40.6079 40.6079 46.3897 46.3897 46.3897 46.3897 27.8927
F13_1 19.1050 38.2753 36.0694 18.0278 25.0000 49.0408 31.6228 13.4536 26.6833 7.0711 5.0000 19.1050 40.6079 0.0000 14.3178 19.1050 19.1050 19.1050 19.1050 40.6079 40.6079 40.6079 40.6079 0.0000 0.0000 0.0000 0.0000 14.3178 14.3178 14.3178 14.3178 19.1050
F13_2 19.1050 38.2753 36.0694 18.0278 25.0000 49.0408 31.6228 13.4536 26.6833 7.0711 5.0000 19.1050 40.6079 0.0000 14.3178 19.1050 19.1050 19.1050 19.1050 40.6079 40.6079 40.6079 40.6079 0.0000 0.0000 0.0000 0.0000 14.3178 14.3178 14.3178 14.3178 19.1050
F13_3 19.1050 38.2753 36.0694 18.0278 25.0000 49.0408 31.6228 13.4536 26.6833 7.0711 5.0000 19.1050 40.6079 0.0000 14.3178 19.1050 19.1050 19.1050 19.1050 40.6079 40.6079 40.6079 40.6079 0.0000 0.0000 0.0000 0.0000 14.3178 14.3178 14.3178 14.3178 19.1050
F13_4 19.1050 38.2753 36.0694 18.0278 25.0000 49.0408 31.6228 13.4536 26.6833 7.0711 5.0000 19.1050 40.6079 0.0000 14.3178 19.1050 19.1050 19.1050 19.1050 40.6079 40.6079 40.6079 40.6079 0.0000 0.0000 0.0000 0.0000 14.3178 14.3178 14.3178 14.3178 19.1050
F14_1 19.0263 33.0151 33.6155 27.7849 22.1359 53.0094 36.1248 27.4591 13.0000 13.6015 16.1245 19.0263 46.3897 14.3178 0.0000 19.0263 19.0263 19.0263 19.0263 46.3897 46.3897 46.3897 46.3897 14.3178 14.3178 14.3178 14.3178 0.0000 0.0000 0.0000 0.0000 19.0263
F14_2 19.0263 33.0151 33.6155 27.7849 22.1359 53.0094 36.1248 27.4591 13.0000 13.6015 16.1245 19.0263 46.3897 14.3178 0.0000 19.0263 19.0263 19.0263 19.0263 46.3897 46.3897 46.3897 46.3897 14.3178 14.3178 14.3178 14.3178 0.0000 0.0000 0.0000 0.0000 19.0263
F14_3 19.0263 33.0151 33.6155 27.7849 22.1359 53.0094 36.1248 27.4591 13.0000 13.6015 16.1245 19.0263 46.3897 14.3178 0.0000 19.0263 19.0263 19.0263 19.0263 46.3897 46.3897 46.3897 46.3897 14.3178 14.3178 14.3178 14.3178 0.0000 0.0000 0.0000 0.0000 19.0263
F14_4 19.0263 33.0151 33.6155 27.7849 22.1359 53.0094 36.1248 27.4591 13.0000 13.6015 16.1245 19.0263 46.3897 14.3178 0.0000 19.0263 19.0263 19.0263 19.0263 46.3897 46.3897 46.3897 46.3897 14.3178 14.3178 14.3178 14.3178 0.0000 0.0000 0.0000 0.0000 19.0263
Nσ 0.0000 19.6977 16.9706 15.8114 6.3246 34.0000 17.4642 24.3311 22.4722 12.0416 24.0416 0.0000 27.8927 19.1050 19.0263 0.0000 0.0000 0.0000 0.0000 27.8927 27.8927 27.8927 27.8927 19.1050 19.1050 19.1050 19.1050 19.0263 19.0263 19.0263 19.0263 0.0000
;